83351.0
1584
0 1 3 4 5 6 8 10 11 14 15 16 17 19 20 23 24 25 26 27 31 34 35 36 38 39 40 41 43 44 46 48 49 50 52 53 56 57 58 59 60 61 62 63 66 68 69 71 72 73 74 75 76 78 80 81 82 83 84 85 86 90 94 95 97 98 99 